%trabajos largos y mantenimineto en medio
n_jobs = 6;
n_machines = 3;
n_ops_for = [3, 3, 2, 2, 1, 3];
dur = array2d(1..6, 1..3, [
  5, 3, 4,
  6, 2, 3,
  4, 5, 0,
  2, 6, 0,
  8, 0, 0,
  5, 4, 3
]);
machine_for = array2d(1..6, 1..3, [
  1, 2, 3,
  2, 3, 1,
  3, 1, 0,
    1, 2, 0,
  2, 0, 0,
  3, 1, 2
]);
maint_start = [6, 7, 7];
maint_end   = [9, 10, 10];

